6 100 456
0 86 22
1 29 17 1 20
2 4 50 23 36
3 25 13 23 45
4 67 37 5 69
5 13 7 7 49
6 62 15 18 20
7 84 38 12 11
8 34 3 20 18
9 19 45 19 70
10 42 76 19 78
11 40 86 16 44
12 25 94 2 52
13 63 57 26 5
14 75 24 13 64
15 61 85 19 36
16 87 38 17 42
17 54 39 14 18
18 66 34 8 47
19 46 39 10 9
20 47 17 5 75
21 21 54 19 8
22 19 83 12 41
23 1 82 9 61
24 94 28 18 9
25 82 72 4 76
26 41 59 20 43
27 100 77 8 10
28 1 57 3 9
29 96 7 18 69
30 57 82 26 68
31 47 38 21 19
32 68 89 21 19
33 16 36 8 12
34 51 38 19 25
35 83 74 66 72
36 84 2 21 53
